p cnf 11 32
11 10 -2 0
-11 8 -3 0
-11 -7 -3 0
11 -6 -3 0
-11 -5 2 0
11 4 -3 0
10 -9 -4 0
-10 8 -1 0
-10 -7 2 0
10 7 -1 0
-10 6 4 0
-10 6 -2 0
-10 5 2 0
10 -3 -1 0
10 3 -1 0
-9 7 -5 0
9 6 4 0
9 -6 2 0
9 -6 1 0
9 5 3 0
8 7 4 0
8 -6 -3 0
8 -4 -2 0
-8 -4 2 0
7 -6 -1 0
7 5 -2 0
-7 5 -1 0
7 5 -1 0
6 -4 -1 0
5 3 2 0
5 -3 -1 0
-4 -3 -2 0
